words_hard_train/9028.qaiger
aag 89 13 0 1 76
2
4
12
14
18
20
32
44
62
66
68
72
154
179
6 3 4
8 2 5
10 7 9
16 12 14
22 19 21
24 18 20
26 23 25
28 16 26
30 29 25
34 33 5
36 32 4
38 35 37
40 31 38
42 41 37
46 45 5
48 44 4
50 47 49
52 43 50
54 53 49
56 11 55
58 10 54
60 57 59
64 61 62
70 67 69
74 70 73
76 13 15
78 77 17
80 74 79
82 17 27
84 83 29
86 81 84
88 80 85
90 87 89
92 90 68
94 66 5
96 94 21
98 95 20
100 99 68
102 97 101
104 73 15
106 71 78
108 105 107
110 103 109
112 111 75
114 72 13
116 115 78
118 112 117
120 93 119
122 91 69
124 121 123
126 30 39
128 127 41
130 89 128
132 88 129
134 131 133
136 134 66
138 125 137
140 135 67
142 139 141
144 42 51
146 145 53
148 133 146
150 132 147
152 149 151
156 153 155
158 142 157
160 158 150
162 64 161
164 60 63
166 160 164
168 163 167
170 151 155
172 171 149
174 173 165
176 174 159
178 168 177
i0 2 y2[4]
i1 1 x1[7]
i2 2 y2[0]
i3 1 x1[5]
i4 2 y2[1]
i5 1 x1[6]
i6 2 y2[2]
i7 2 y2[3]
i8 1 x1[0]
i9 1 x1[2]
i10 1 x1[3]
i11 1 x1[4]
i12 1 x1[1]
o0 bv[0]
c
simplified
  >
    add
      << 3
        2 y2
      >> 2
        1 x1
    reverse
      1 x1
