words_hard_train/9028.qaiger.qdimacs
p cnf 89 229
a 33 2 34 36 7 10 77 31 0
e 1 3 4 5 6 8 9 11 12 13 14 15 16 17 18 19 20 21 22 23 24 25 26 27 28 29 30 32 35 37 38 39 40 41 42 43 44 45 46 47 48 49 50 51 52 53 54 55 56 57 58 59 60 61 62 63 64 65 66 67 68 69 70 71 72 73 74 75 76 78 79 80 81 82 83 84 85 86 87 88 89 0
1 -2 3 0
-1 -3 0
2 -3 0
-1 2 4 0
1 -4 0
-2 -4 0
3 4 5 0
-3 -5 0
-4 -5 0
-6 -7 8 0
6 -8 0
7 -8 0
9 10 11 0
-9 -11 0
-10 -11 0
-9 -10 12 0
9 -12 0
10 -12 0
11 12 13 0
-11 -13 0
-12 -13 0
-8 -13 14 0
8 -14 0
13 -14 0
14 12 15 0
-14 -15 0
-12 -15 0
16 2 17 0
-16 -17 0
-2 -17 0
-16 -2 18 0
16 -18 0
2 -18 0
17 18 19 0
-17 -19 0
-18 -19 0
15 -19 20 0
-15 -20 0
19 -20 0
20 18 21 0
-20 -21 0
-18 -21 0
22 2 23 0
-22 -23 0
-2 -23 0
-22 -2 24 0
22 -24 0
2 -24 0
23 24 25 0
-23 -25 0
-24 -25 0
21 -25 26 0
-21 -26 0
25 -26 0
26 24 27 0
-26 -27 0
-24 -27 0
5 27 28 0
-5 -28 0
-27 -28 0
-5 -27 29 0
5 -29 0
27 -29 0
28 29 30 0
-28 -30 0
-29 -30 0
30 -31 32 0
-30 -32 0
31 -32 0
33 34 35 0
-33 -35 0
-34 -35 0
-35 36 37 0
35 -37 0
-36 -37 0
6 7 38 0
-6 -38 0
-7 -38 0
38 8 39 0
-38 -39 0
-8 -39 0
-37 39 40 0
37 -40 0
-39 -40 0
8 13 41 0
-8 -41 0
-13 -41 0
41 14 42 0
-41 -42 0
-14 -42 0
40 -42 43 0
-40 -43 0
42 -43 0
-40 42 44 0
40 -44 0
-42 -44 0
43 44 45 0
-43 -45 0
-44 -45 0
-45 -34 46 0
45 -46 0
34 -46 0
-33 2 47 0
33 -47 0
-2 -47 0
-47 10 48 0
47 -48 0
-10 -48 0
47 -10 49 0
-47 -49 0
10 -49 0
49 -34 50 0
-49 -50 0
34 -50 0
48 50 51 0
-48 -51 0
-50 -51 0
36 7 52 0
-36 -52 0
-7 -52 0
35 -39 53 0
-35 -53 0
39 -53 0
52 53 54 0
-52 -54 0
-53 -54 0
51 54 55 0
-51 -55 0
-54 -55 0
55 37 56 0
-55 -56 0
-37 -56 0
-36 6 57 0
36 -57 0
-6 -57 0
57 -39 58 0
-57 -58 0
39 -58 0
-56 58 59 0
56 -59 0
-58 -59 0
46 59 60 0
-46 -60 0
-59 -60 0
45 34 61 0
-45 -61 0
-34 -61 0
60 61 62 0
-60 -62 0
-61 -62 0
-15 19 63 0
15 -63 0
-19 -63 0
63 20 64 0
-63 -64 0
-20 -64 0
44 -64 65 0
-44 -65 0
64 -65 0
-44 64 66 0
44 -66 0
-64 -66 0
65 66 67 0
-65 -67 0
-66 -67 0
-67 -33 68 0
67 -68 0
33 -68 0
62 68 69 0
-62 -69 0
-68 -69 0
67 33 70 0
-67 -70 0
-33 -70 0
69 70 71 0
-69 -71 0
-70 -71 0
-21 25 72 0
21 -72 0
-25 -72 0
72 26 73 0
-72 -73 0
-26 -73 0
66 -73 74 0
-66 -74 0
73 -74 0
-66 73 75 0
66 -75 0
-73 -75 0
74 75 76 0
-74 -76 0
-75 -76 0
76 77 78 0
-76 -78 0
-77 -78 0
-71 78 79 0
71 -79 0
-78 -79 0
-79 -75 80 0
79 -80 0
75 -80 0
-32 80 81 0
32 -81 0
-80 -81 0
-30 31 82 0
30 -82 0
-31 -82 0
-80 -82 83 0
80 -83 0
82 -83 0
81 83 84 0
-81 -84 0
-83 -84 0
75 77 85 0
-75 -85 0
-77 -85 0
85 74 86 0
-85 -86 0
-74 -86 0
86 82 87 0
-86 -87 0
-82 -87 0
-87 79 88 0
87 -88 0
-79 -88 0
-84 88 89 0
84 -89 0
-88 -89 0
-89 0
